c description: Graph pigeonhole principle formula on fast_gnp_random_graph(20,5,0.9)
c generator: CNFgen (0.9.0)
c copyright: (C) 2012-2020 Massimo Lauria <massimo.lauria@uniroma1.it>
c url: https://massimolauria.net/cnfgen
c
p cnf 93 839
1 2 3 4 5 0
6 7 8 9 0
10 11 12 13 0
14 15 16 17 18 0
19 20 21 22 23 0
24 25 26 27 28 0
29 30 31 32 33 0
34 35 36 37 38 0
39 40 41 42 43 0
44 45 46 47 48 0
49 50 51 52 53 0
54 55 56 57 58 0
59 60 61 62 0
63 64 65 66 67 0
68 69 70 71 72 0
73 74 75 76 0
77 78 79 80 81 0
82 83 84 85 0
86 87 88 89 90 0
91 92 93 0
-1 -6 0
-1 -10 0
-1 -14 0
-1 -19 0
-1 -24 0
-1 -29 0
-1 -34 0
-1 -39 0
-1 -44 0
-1 -49 0
-1 -54 0
-1 -59 0
-1 -63 0
-1 -68 0
-1 -73 0
-1 -77 0
-1 -86 0
-1 -91 0
-6 -10 0
-6 -14 0
-6 -19 0
-6 -24 0
-6 -29 0
-6 -34 0
-6 -39 0
-6 -44 0
-6 -49 0
-6 -54 0
-6 -59 0
-6 -63 0
-6 -68 0
-6 -73 0
-6 -77 0
-6 -86 0
-6 -91 0
-10 -14 0
-10 -19 0
-10 -24 0
-10 -29 0
-10 -34 0
-10 -39 0
-10 -44 0
-10 -49 0
-10 -54 0
-10 -59 0
-10 -63 0
-10 -68 0
-10 -73 0
-10 -77 0
-10 -86 0
-10 -91 0
-14 -19 0
-14 -24 0
-14 -29 0
-14 -34 0
-14 -39 0
-14 -44 0
-14 -49 0
-14 -54 0
-14 -59 0
-14 -63 0
-14 -68 0
-14 -73 0
-14 -77 0
-14 -86 0
-14 -91 0
-19 -24 0
-19 -29 0
-19 -34 0
-19 -39 0
-19 -44 0
-19 -49 0
-19 -54 0
-19 -59 0
-19 -63 0
-19 -68 0
-19 -73 0
-19 -77 0
-19 -86 0
-19 -91 0
-24 -29 0
-24 -34 0
-24 -39 0
-24 -44 0
-24 -49 0
-24 -54 0
-24 -59 0
-24 -63 0
-24 -68 0
-24 -73 0
-24 -77 0
-24 -86 0
-24 -91 0
-29 -34 0
-29 -39 0
-29 -44 0
-29 -49 0
-29 -54 0
-29 -59 0
-29 -63 0
-29 -68 0
-29 -73 0
-29 -77 0
-29 -86 0
-29 -91 0
-34 -39 0
-34 -44 0
-34 -49 0
-34 -54 0
-34 -59 0
-34 -63 0
-34 -68 0
-34 -73 0
-34 -77 0
-34 -86 0
-34 -91 0
-39 -44 0
-39 -49 0
-39 -54 0
-39 -59 0
-39 -63 0
-39 -68 0
-39 -73 0
-39 -77 0
-39 -86 0
-39 -91 0
-44 -49 0
-44 -54 0
-44 -59 0
-44 -63 0
-44 -68 0
-44 -73 0
-44 -77 0
-44 -86 0
-44 -91 0
-49 -54 0
-49 -59 0
-49 -63 0
-49 -68 0
-49 -73 0
-49 -77 0
-49 -86 0
-49 -91 0
-54 -59 0
-54 -63 0
-54 -68 0
-54 -73 0
-54 -77 0
-54 -86 0
-54 -91 0
-59 -63 0
-59 -68 0
-59 -73 0
-59 -77 0
-59 -86 0
-59 -91 0
-63 -68 0
-63 -73 0
-63 -77 0
-63 -86 0
-63 -91 0
-68 -73 0
-68 -77 0
-68 -86 0
-68 -91 0
-73 -77 0
-73 -86 0
-73 -91 0
-77 -86 0
-77 -91 0
-86 -91 0
-2 -11 0
-2 -15 0
-2 -20 0
-2 -25 0
-2 -30 0
-2 -35 0
-2 -40 0
-2 -45 0
-2 -50 0
-2 -55 0
-2 -60 0
-2 -64 0
-2 -69 0
-2 -74 0
-2 -78 0
-2 -82 0
-2 -87 0
-11 -15 0
-11 -20 0
-11 -25 0
-11 -30 0
-11 -35 0
-11 -40 0
-11 -45 0
-11 -50 0
-11 -55 0
-11 -60 0
-11 -64 0
-11 -69 0
-11 -74 0
-11 -78 0
-11 -82 0
-11 -87 0
-15 -20 0
-15 -25 0
-15 -30 0
-15 -35 0
-15 -40 0
-15 -45 0
-15 -50 0
-15 -55 0
-15 -60 0
-15 -64 0
-15 -69 0
-15 -74 0
-15 -78 0
-15 -82 0
-15 -87 0
-20 -25 0
-20 -30 0
-20 -35 0
-20 -40 0
-20 -45 0
-20 -50 0
-20 -55 0
-20 -60 0
-20 -64 0
-20 -69 0
-20 -74 0
-20 -78 0
-20 -82 0
-20 -87 0
-25 -30 0
-25 -35 0
-25 -40 0
-25 -45 0
-25 -50 0
-25 -55 0
-25 -60 0
-25 -64 0
-25 -69 0
-25 -74 0
-25 -78 0
-25 -82 0
-25 -87 0
-30 -35 0
-30 -40 0
-30 -45 0
-30 -50 0
-30 -55 0
-30 -60 0
-30 -64 0
-30 -69 0
-30 -74 0
-30 -78 0
-30 -82 0
-30 -87 0
-35 -40 0
-35 -45 0
-35 -50 0
-35 -55 0
-35 -60 0
-35 -64 0
-35 -69 0
-35 -74 0
-35 -78 0
-35 -82 0
-35 -87 0
-40 -45 0
-40 -50 0
-40 -55 0
-40 -60 0
-40 -64 0
-40 -69 0
-40 -74 0
-40 -78 0
-40 -82 0
-40 -87 0
-45 -50 0
-45 -55 0
-45 -60 0
-45 -64 0
-45 -69 0
-45 -74 0
-45 -78 0
-45 -82 0
-45 -87 0
-50 -55 0
-50 -60 0
-50 -64 0
-50 -69 0
-50 -74 0
-50 -78 0
-50 -82 0
-50 -87 0
-55 -60 0
-55 -64 0
-55 -69 0
-55 -74 0
-55 -78 0
-55 -82 0
-55 -87 0
-60 -64 0
-60 -69 0
-60 -74 0
-60 -78 0
-60 -82 0
-60 -87 0
-64 -69 0
-64 -74 0
-64 -78 0
-64 -82 0
-64 -87 0
-69 -74 0
-69 -78 0
-69 -82 0
-69 -87 0
-74 -78 0
-74 -82 0
-74 -87 0
-78 -82 0
-78 -87 0
-82 -87 0
-3 -7 0
-3 -12 0
-3 -16 0
-3 -21 0
-3 -26 0
-3 -31 0
-3 -36 0
-3 -41 0
-3 -46 0
-3 -51 0
-3 -56 0
-3 -61 0
-3 -65 0
-3 -70 0
-3 -79 0
-3 -83 0
-3 -88 0
-7 -12 0
-7 -16 0
-7 -21 0
-7 -26 0
-7 -31 0
-7 -36 0
-7 -41 0
-7 -46 0
-7 -51 0
-7 -56 0
-7 -61 0
-7 -65 0
-7 -70 0
-7 -79 0
-7 -83 0
-7 -88 0
-12 -16 0
-12 -21 0
-12 -26 0
-12 -31 0
-12 -36 0
-12 -41 0
-12 -46 0
-12 -51 0
-12 -56 0
-12 -61 0
-12 -65 0
-12 -70 0
-12 -79 0
-12 -83 0
-12 -88 0
-16 -21 0
-16 -26 0
-16 -31 0
-16 -36 0
-16 -41 0
-16 -46 0
-16 -51 0
-16 -56 0
-16 -61 0
-16 -65 0
-16 -70 0
-16 -79 0
-16 -83 0
-16 -88 0
-21 -26 0
-21 -31 0
-21 -36 0
-21 -41 0
-21 -46 0
-21 -51 0
-21 -56 0
-21 -61 0
-21 -65 0
-21 -70 0
-21 -79 0
-21 -83 0
-21 -88 0
-26 -31 0
-26 -36 0
-26 -41 0
-26 -46 0
-26 -51 0
-26 -56 0
-26 -61 0
-26 -65 0
-26 -70 0
-26 -79 0
-26 -83 0
-26 -88 0
-31 -36 0
-31 -41 0
-31 -46 0
-31 -51 0
-31 -56 0
-31 -61 0
-31 -65 0
-31 -70 0
-31 -79 0
-31 -83 0
-31 -88 0
-36 -41 0
-36 -46 0
-36 -51 0
-36 -56 0
-36 -61 0
-36 -65 0
-36 -70 0
-36 -79 0
-36 -83 0
-36 -88 0
-41 -46 0
-41 -51 0
-41 -56 0
-41 -61 0
-41 -65 0
-41 -70 0
-41 -79 0
-41 -83 0
-41 -88 0
-46 -51 0
-46 -56 0
-46 -61 0
-46 -65 0
-46 -70 0
-46 -79 0
-46 -83 0
-46 -88 0
-51 -56 0
-51 -61 0
-51 -65 0
-51 -70 0
-51 -79 0
-51 -83 0
-51 -88 0
-56 -61 0
-56 -65 0
-56 -70 0
-56 -79 0
-56 -83 0
-56 -88 0
-61 -65 0
-61 -70 0
-61 -79 0
-61 -83 0
-61 -88 0
-65 -70 0
-65 -79 0
-65 -83 0
-65 -88 0
-70 -79 0
-70 -83 0
-70 -88 0
-79 -83 0
-79 -88 0
-83 -88 0
-4 -8 0
-4 -17 0
-4 -22 0
-4 -27 0
-4 -32 0
-4 -37 0
-4 -42 0
-4 -47 0
-4 -52 0
-4 -57 0
-4 -62 0
-4 -66 0
-4 -71 0
-4 -75 0
-4 -80 0
-4 -84 0
-4 -89 0
-4 -92 0
-8 -17 0
-8 -22 0
-8 -27 0
-8 -32 0
-8 -37 0
-8 -42 0
-8 -47 0
-8 -52 0
-8 -57 0
-8 -62 0
-8 -66 0
-8 -71 0
-8 -75 0
-8 -80 0
-8 -84 0
-8 -89 0
-8 -92 0
-17 -22 0
-17 -27 0
-17 -32 0
-17 -37 0
-17 -42 0
-17 -47 0
-17 -52 0
-17 -57 0
-17 -62 0
-17 -66 0
-17 -71 0
-17 -75 0
-17 -80 0
-17 -84 0
-17 -89 0
-17 -92 0
-22 -27 0
-22 -32 0
-22 -37 0
-22 -42 0
-22 -47 0
-22 -52 0
-22 -57 0
-22 -62 0
-22 -66 0
-22 -71 0
-22 -75 0
-22 -80 0
-22 -84 0
-22 -89 0
-22 -92 0
-27 -32 0
-27 -37 0
-27 -42 0
-27 -47 0
-27 -52 0
-27 -57 0
-27 -62 0
-27 -66 0
-27 -71 0
-27 -75 0
-27 -80 0
-27 -84 0
-27 -89 0
-27 -92 0
-32 -37 0
-32 -42 0
-32 -47 0
-32 -52 0
-32 -57 0
-32 -62 0
-32 -66 0
-32 -71 0
-32 -75 0
-32 -80 0
-32 -84 0
-32 -89 0
-32 -92 0
-37 -42 0
-37 -47 0
-37 -52 0
-37 -57 0
-37 -62 0
-37 -66 0
-37 -71 0
-37 -75 0
-37 -80 0
-37 -84 0
-37 -89 0
-37 -92 0
-42 -47 0
-42 -52 0
-42 -57 0
-42 -62 0
-42 -66 0
-42 -71 0
-42 -75 0
-42 -80 0
-42 -84 0
-42 -89 0
-42 -92 0
-47 -52 0
-47 -57 0
-47 -62 0
-47 -66 0
-47 -71 0
-47 -75 0
-47 -80 0
-47 -84 0
-47 -89 0
-47 -92 0
-52 -57 0
-52 -62 0
-52 -66 0
-52 -71 0
-52 -75 0
-52 -80 0
-52 -84 0
-52 -89 0
-52 -92 0
-57 -62 0
-57 -66 0
-57 -71 0
-57 -75 0
-57 -80 0
-57 -84 0
-57 -89 0
-57 -92 0
-62 -66 0
-62 -71 0
-62 -75 0
-62 -80 0
-62 -84 0
-62 -89 0
-62 -92 0
-66 -71 0
-66 -75 0
-66 -80 0
-66 -84 0
-66 -89 0
-66 -92 0
-71 -75 0
-71 -80 0
-71 -84 0
-71 -89 0
-71 -92 0
-75 -80 0
-75 -84 0
-75 -89 0
-75 -92 0
-80 -84 0
-80 -89 0
-80 -92 0
-84 -89 0
-84 -92 0
-89 -92 0
-5 -9 0
-5 -13 0
-5 -18 0
-5 -23 0
-5 -28 0
-5 -33 0
-5 -38 0
-5 -43 0
-5 -48 0
-5 -53 0
-5 -58 0
-5 -67 0
-5 -72 0
-5 -76 0
-5 -81 0
-5 -85 0
-5 -90 0
-5 -93 0
-9 -13 0
-9 -18 0
-9 -23 0
-9 -28 0
-9 -33 0
-9 -38 0
-9 -43 0
-9 -48 0
-9 -53 0
-9 -58 0
-9 -67 0
-9 -72 0
-9 -76 0
-9 -81 0
-9 -85 0
-9 -90 0
-9 -93 0
-13 -18 0
-13 -23 0
-13 -28 0
-13 -33 0
-13 -38 0
-13 -43 0
-13 -48 0
-13 -53 0
-13 -58 0
-13 -67 0
-13 -72 0
-13 -76 0
-13 -81 0
-13 -85 0
-13 -90 0
-13 -93 0
-18 -23 0
-18 -28 0
-18 -33 0
-18 -38 0
-18 -43 0
-18 -48 0
-18 -53 0
-18 -58 0
-18 -67 0
-18 -72 0
-18 -76 0
-18 -81 0
-18 -85 0
-18 -90 0
-18 -93 0
-23 -28 0
-23 -33 0
-23 -38 0
-23 -43 0
-23 -48 0
-23 -53 0
-23 -58 0
-23 -67 0
-23 -72 0
-23 -76 0
-23 -81 0
-23 -85 0
-23 -90 0
-23 -93 0
-28 -33 0
-28 -38 0
-28 -43 0
-28 -48 0
-28 -53 0
-28 -58 0
-28 -67 0
-28 -72 0
-28 -76 0
-28 -81 0
-28 -85 0
-28 -90 0
-28 -93 0
-33 -38 0
-33 -43 0
-33 -48 0
-33 -53 0
-33 -58 0
-33 -67 0
-33 -72 0
-33 -76 0
-33 -81 0
-33 -85 0
-33 -90 0
-33 -93 0
-38 -43 0
-38 -48 0
-38 -53 0
-38 -58 0
-38 -67 0
-38 -72 0
-38 -76 0
-38 -81 0
-38 -85 0
-38 -90 0
-38 -93 0
-43 -48 0
-43 -53 0
-43 -58 0
-43 -67 0
-43 -72 0
-43 -76 0
-43 -81 0
-43 -85 0
-43 -90 0
-43 -93 0
-48 -53 0
-48 -58 0
-48 -67 0
-48 -72 0
-48 -76 0
-48 -81 0
-48 -85 0
-48 -90 0
-48 -93 0
-53 -58 0
-53 -67 0
-53 -72 0
-53 -76 0
-53 -81 0
-53 -85 0
-53 -90 0
-53 -93 0
-58 -67 0
-58 -72 0
-58 -76 0
-58 -81 0
-58 -85 0
-58 -90 0
-58 -93 0
-67 -72 0
-67 -76 0
-67 -81 0
-67 -85 0
-67 -90 0
-67 -93 0
-72 -76 0
-72 -81 0
-72 -85 0
-72 -90 0
-72 -93 0
-76 -81 0
-76 -85 0
-76 -90 0
-76 -93 0
-81 -85 0
-81 -90 0
-81 -93 0
-85 -90 0
-85 -93 0
-90 -93 0